RT is False
Default write of storage_offers_DA.csv just to have a file (but constraint should be inactive)
Reading model...
...model read.
creating competitive generators file...
...competitive generators recorded.
Loading data...
.. day-ahead data with real-time VRE data read.
Compiling instance...
...instance created.
Creating Offer Mitigation (model will solve as dispatch if TRUE)...
NOTE: storage offers will not be mitigated
...storage offer mitigation file created
Converting model to MPEC...
...converted
NOTE: initial MIP solve with only storage competitive to get feasible solution
Solving...

Welcome to IBM(R) ILOG(R) CPLEX(R) Interactive Optimizer 12.9.0.0
  with Simplex, Mixed Integer & Barrier Optimizers
5725-A06 5725-A29 5724-Y48 5724-Y49 5724-Y54 5724-Y55 5655-Y21
Copyright IBM Corp. 1988, 2019.  All Rights Reserved.

Type 'help' for a list of available commands.
Type 'help' followed by a command name for more
information on commands.

CPLEX> Logfile 'cplex.log' closed.
Logfile 'C:\Users\llavin\Desktop\test826\logs\tmpu180blpe.cplex.log' open.
CPLEX> New value for parallel optimization mode: -1
CPLEX> New value for mixed integer optimality gap tolerance: 0.01
CPLEX> New value for integrality tolerance: 1e-09
CPLEX> New value for feasibility tolerance: 0.001
CPLEX> New value for deterministic time limit in ticks: 75000
CPLEX> Problem 'C:\Users\llavin\Desktop\test826\logs\tmpluh17gvn.pyomo.lp' read.
Read time = 0.23 sec. (14.73 ticks)
CPLEX> Problem name         : C:\Users\llavin\Desktop\test826\logs\tmpluh17gvn.pyomo.lp
Objective sense      : Maximize
Variables            :   53805  [Nneg: 1,  Box: 22000,  Free: 4464,
                                 Binary: 27340]
Objective nonzeros   :    9028
Linear constraints   :  123205  [Less: 41346,  Greater: 59096,  Equal: 22763]
  Nonzeros           :  291752
  RHS nonzeros       :   67490

Variables            : Min LB: -5000.000        Max UB: 1000000.       
Objective nonzeros   : Min   : 0.04166667       Max   : 2500.000       
Linear constraints   :
  Nonzeros           : Min   : 0.04166667       Max   : 1000000.       
  RHS nonzeros       : Min   : 0.04166667       Max   : 1000000.       
CPLEX> CPXPARAM_Parallel                                -1
CPXPARAM_Simplex_Tolerances_Feasibility          0.001
CPXPARAM_DetTimeLimit                            75000
CPXPARAM_MIP_Tolerances_MIPGap                   0.01
CPXPARAM_MIP_Tolerances_Integrality              1.0000000000000001e-09
Tried aggregator 3 times.
MIP Presolve eliminated 88669 rows and 18993 columns.
MIP Presolve added 3378 rows and 0 columns.
MIP Presolve modified 24845 coefficients.
Aggregator did 12980 substitutions.
Reduced MIP has 24934 rows, 21276 columns, and 71108 nonzeros.
Reduced MIP has 8409 binaries, 0 generals, 0 SOSs, and 0 indicators.
Presolve time = 0.28 sec. (173.41 ticks)
Probing fixed 387 vars, tightened 2833 bounds.
Probing time = 1.19 sec. (862.24 ticks)
Tried aggregator 2 times.
MIP Presolve eliminated 875 rows and 774 columns.
MIP Presolve modified 2212 coefficients.
Aggregator did 39 substitutions.
Reduced MIP has 24020 rows, 20463 columns, and 68467 nonzeros.
Reduced MIP has 8022 binaries, 0 generals, 0 SOSs, and 0 indicators.
Presolve time = 0.09 sec. (66.32 ticks)
Probing time = 0.05 sec. (16.28 ticks)
Clique table members: 6322.
MIP emphasis: balance optimality and feasibility.
MIP search method: dynamic search.
Parallel mode: opportunistic, using up to 32 threads.
Root relaxation solution time = 0.47 sec. (570.69 ticks)

        Nodes                                         Cuts/
   Node  Left     Objective  IInf  Best Integer    Best Bound    ItCnt     Gap

      0     0     3999.7161   673                   3999.7161     6881         
      0     0     3999.7161     3                    Cuts: 11     6887         
      0     0     3999.7161     3                 Flowcuts: 2     6888         
      0     8     3767.7312     2                 Impl Bds: 3     6952         
Elapsed time = 7.28 sec. (4116.75 ticks, tree = 0.02 MB, solutions = 1)
*    10     9      integral     0     3931.2073     3944.9666     6963    0.35%

Implied bound cuts applied:  3
Flow cuts applied:  7
Gomory fractional cuts applied:  3

Root node processing (before b&c):
  Real time             =    6.24 sec. (4085.22 ticks)
Parallel b&c, 32 threads:
  Real time             =    1.16 sec. (117.60 ticks)
  Sync time (average)   =    0.45 sec.
  Wait time (average)   =    0.00 sec.
                          ------------
Total (root+branch&cut) =    7.39 sec. (4202.83 ticks)

Solution pool: 1 solution saved.

MIP - Integer optimal, tolerance (0.01/1e-06):  Objective =  3.9312072815e+03
Current MIP best bound =  3.9449666439e+03 (gap = 13.7594, 0.35%)
Solution time =    7.42 sec.  Iterations = 7111  Nodes = 34 (4)
Deterministic time = 4202.98 ticks  (566.29 ticks/sec)

CPLEX> Incumbent solution written to file 'C:\Users\llavin\Desktop\test826\logs\tmp33k1r_b7.cplex.sol'.
CPLEX> NOTE: no warmstart specified for MIP iteration, default behavior is true
NOTE: resolving with all competitive generators using storage-only solution to warmstart
Solving...

Welcome to IBM(R) ILOG(R) CPLEX(R) Interactive Optimizer 12.9.0.0
  with Simplex, Mixed Integer & Barrier Optimizers
5725-A06 5725-A29 5724-Y48 5724-Y49 5724-Y54 5724-Y55 5655-Y21
Copyright IBM Corp. 1988, 2019.  All Rights Reserved.

Type 'help' for a list of available commands.
Type 'help' followed by a command name for more
information on commands.

CPLEX> Logfile 'cplex.log' closed.
Logfile 'C:\Users\llavin\Desktop\test826\logs\tmpehosp_m3.cplex.log' open.
CPLEX> New value for parallel optimization mode: -1
CPLEX> New value for mixed integer optimality gap tolerance: 0.01
CPLEX> New value for integrality tolerance: 1e-09
CPLEX> New value for feasibility tolerance: 0.001
CPLEX> New value for deterministic time limit in ticks: 75000
CPLEX> Problem 'C:\Users\llavin\Desktop\test826\logs\tmpgprohyf7.pyomo.lp' read.
Read time = 0.27 sec. (14.75 ticks)
CPLEX> MIP start file 'C:\Users\llavin\Desktop\test826\logs\tmpwo3jcocp.cplex.mst' read.
CPLEX> Problem name         : C:\Users\llavin\Desktop\test826\logs\tmpgprohyf7.pyomo.lp
Objective sense      : Maximize
Variables            :   54525  [Nneg: 1,  Box: 22720,  Free: 4464,
                                 Binary: 27340]
Objective nonzeros   :    9748
Linear constraints   :  123205  [Less: 41346,  Greater: 59096,  Equal: 22763]
  Nonzeros           :  291752
  RHS nonzeros       :   67490

Variables            : Min LB: -5000.000        Max UB: 1000000.       
Objective nonzeros   : Min   : 0.04166667       Max   : 2500.000       
Linear constraints   :
  Nonzeros           : Min   : 0.04166667       Max   : 1000000.       
  RHS nonzeros       : Min   : 0.04166667       Max   : 1000000.       
CPLEX> CPXPARAM_Parallel                                -1
CPXPARAM_Simplex_Tolerances_Feasibility          0.001
CPXPARAM_DetTimeLimit                            75000
CPXPARAM_MIP_Tolerances_MIPGap                   0.01
CPXPARAM_MIP_Tolerances_Integrality              1.0000000000000001e-09
Warning:  No solution found from 1 MIP starts.
Retaining values of one MIP start for possible repair.
Tried aggregator 3 times.
MIP Presolve eliminated 88669 rows and 19713 columns.
MIP Presolve added 3378 rows and 0 columns.
MIP Presolve modified 24845 coefficients.
Aggregator did 12980 substitutions.
Reduced MIP has 24934 rows, 21276 columns, and 71108 nonzeros.
Reduced MIP has 8409 binaries, 0 generals, 0 SOSs, and 0 indicators.
Presolve time = 0.28 sec. (173.77 ticks)
Probing fixed 387 vars, tightened 2833 bounds.
Probing time = 1.17 sec. (862.24 ticks)
Tried aggregator 2 times.
MIP Presolve eliminated 875 rows and 774 columns.
MIP Presolve modified 2212 coefficients.
Aggregator did 39 substitutions.
Reduced MIP has 24020 rows, 20463 columns, and 68467 nonzeros.
Reduced MIP has 8022 binaries, 0 generals, 0 SOSs, and 0 indicators.
Presolve time = 0.11 sec. (66.32 ticks)
Probing time = 0.05 sec. (16.28 ticks)
Clique table members: 6322.
MIP emphasis: balance optimality and feasibility.
MIP search method: dynamic search.
Parallel mode: opportunistic, using up to 32 threads.
Root relaxation solution time = 0.47 sec. (570.69 ticks)

        Nodes                                         Cuts/
   Node  Left     Objective  IInf  Best Integer    Best Bound    ItCnt     Gap

      0     0     3999.7161   673                   3999.7161     6881         
      0     0     3999.7161     3                    Cuts: 11     6887         
      0     0     3999.7161     3                 Flowcuts: 2     6888         
Repair heuristic found nothing.
      0     2     3999.7161     3                 Impl Bds: 3     6888         
Elapsed time = 7.76 sec. (4225.10 ticks, tree = 0.02 MB, solutions = 1)
*     3     9      integral     0     3931.2073     3944.9666     6963    0.35%

Implied bound cuts applied:  3
Flow cuts applied:  7
Gomory fractional cuts applied:  3

Root node processing (before b&c):
  Real time             =    6.63 sec. (4180.32 ticks)
Parallel b&c, 32 threads:
  Real time             =    1.28 sec. (99.68 ticks)
  Sync time (average)   =    0.45 sec.
  Wait time (average)   =    0.00 sec.
                          ------------
Total (root+branch&cut) =    7.91 sec. (4280.00 ticks)

Solution pool: 1 solution saved.

MIP - Integer optimal, tolerance (0.01/1e-06):  Objective =  3.9312072815e+03
Current MIP best bound =  3.9449666439e+03 (gap = 13.7594, 0.35%)
Solution time =    7.95 sec.  Iterations = 7077  Nodes = 31 (6)
Deterministic time = 4280.15 ticks  (538.18 ticks/sec)

CPLEX> Incumbent solution written to file 'C:\Users\llavin\Desktop\test826\logs\tmpsiita8p2.cplex.sol'.
CPLEX> Exporting results... 
